40 26
4 858
2 539
15 157
15 399
5 652
7 379
9 43
12 817
4 160
17 379
9 318
2 609
15 330
21 61
14 876
8 813
20 190
20 900
2 273
1 920
12 38
6 614
17 25
23 516
4 229
14 565
15 628
22 777
11 459
9 113
24 646
2 676
25 541
23 367
23 80
19 338
19 972
5 104
7 138
20 712
